NAME : rbg016b.tw.2094.tour
COMMENT : Length = 2094
COMMENT : Found by LKH [Keld Helsgaun] Sun Sep 10 01:17:34 2017
TYPE : TOUR
DIMENSION : 17
TOUR_SECTION
1
3
4
2
11
6
12
13
5
9
10
7
8
14
17
15
16
-1
EOF
